15 4 
4781	4781	4781	4781	
387	884	952	
257	664	695	
37	749	813	
896	363	394	
571	978	1043	
487	903	967	
980	111	115	
325	356	380	
789	743	749	
472	687	708	
929	774	836	
913	697	718	
762	315	324	
972	420	444	
510	919	964	
